
Gurobi 12.0.2 (win64) logging started Wed Jun  4 16:56:38 2025

Set parameter LogFile to value "C:\Ioana\_uni\honours\slp\algorithm\Main_files\results\others\fatty_acids\Task_004_Sample003_irr_gurobi.log"
Gurobi Optimizer version 12.0.2 build v12.0.2rc0 (win64 - Windows 11.0 (26100.2))

CPU model: Intel(R) Core(TM) Ultra 5 125H, instruction set [SSE2|AVX|AVX2]
Thread count: 14 physical cores, 18 logical processors, using up to 18 threads

Non-default parameters:
TimeLimit  2200

Optimize a model with 47226 rows, 34493 columns and 146680 nonzeros
Model fingerprint: 0x545e4a50
Variable types: 17248 continuous, 17245 integer (17245 binary)
Coefficient statistics:
  Matrix range     [1e-04, 8e+04]
  Objective range  [2e-05, 1e+01]
  Bounds range     [1e+00, 1e+03]
  RHS range        [1e+00, 1e+00]
Found heuristic solution: objective 0.0058685
Presolve removed 47226 rows and 34493 columns
Presolve time: 0.32s
Presolve: All rows and columns removed

Explored 0 nodes (0 simplex iterations) in 0.35 seconds (0.27 work units)
Thread count was 1 (of 18 available processors)

Solution count 1: 0.00586854 

Optimal solution found (tolerance 1.00e-04)
Best objective 5.868544600939e-03, best bound 5.868544600939e-03, gap 0.0000%
